NAME : local_2
TYPE : ATSP
DIMENSION : 5
EDGE_WEIGHT_TYPE : EXPLICIT
EDGE_WEIGHT_FORMAT : FULL_MATRIX
EDGE_WEIGHT_SECTION
0 311 10000000 280 0 
0 0 10000000 586 311 
0 10000000 0 10000000 10000000 
0 586 10000000 0 280 
0 10000000 10000000 10000000 0 
EOF